qbf_easy_train/easy_1177_SAT.qdimacs
p cnf 26 68
a 13 6 0
e 1 2 3 4 5 7 8 9 10 11 12 14 15 16 17 18 19 20 21 22 23 24 25 26 0
-1 -2 -3 0
1 2 -3 0
-1 2 3 0
1 -2 3 0
-5 1 0
-5 -4 0
-1 4 5 0
7 6 0
7 -2 0
-6 2 -7 0
5 -7 -8 0
-5 7 -8 0
5 7 8 0
-5 -7 8 0
-10 2 0
-10 -9 0
-2 9 10 0
-12 10 0
-12 11 0
-10 -11 12 0
13 -9 0
13 -12 0
9 12 -13 0
-8 -13 -14 0
8 13 -14 0
-8 13 14 0
8 -13 14 0
3 14 -15 0
-3 -14 -15 0
3 -14 15 0
-3 14 15 0
17 1 0
17 -16 0
-1 16 -17 0
-18 -15 0
-18 17 0
15 -17 18 0
-9 1 -19 0
9 -1 -19 0
-9 -1 19 0
9 1 19 0
-20 18 0
-20 19 0
-18 -19 20 0
16 -21 -22 0
-16 21 -22 0
16 21 22 0
-16 -21 22 0
-4 -6 -23 0
4 6 -23 0
-4 6 23 0
4 -6 23 0
-23 24 0
23 24 0
22 24 -25 0
-22 -24 -25 0
22 -24 25 0
-22 24 25 0
26 20 0
26 25 0
-20 -25 -26 0
-2 12 -23 -14 -10 -4 0
20 9 -1 0
4 -23 -15 -13 19 -1 0
6 -22 23 -25 0
-9 -19 -16 -3 0
16 20 9 -26 0
26 0
