sat_easy_train/easy_1177_SAT.dimacs
p cnf 131 431
-3 -2 -4 0
3 2 -4 0
-3 2 4 0
3 -2 4 0
-2 -4 -5 0
2 4 -5 0
-2 4 5 0
2 -4 5 0
1 5 -6 0
-1 -5 -6 0
1 -5 6 0
-1 5 6 0
-9 -7 0
-9 8 0
7 -8 9 0
-10 4 0
-10 9 0
-4 -9 10 0
-13 -7 0
-13 12 0
7 -12 13 0
14 -11 0
14 -13 0
11 13 -14 0
-16 14 0
-16 -15 0
-14 15 16 0
18 17 0
18 -7 0
-17 7 -18 0
20 -18 0
20 -19 0
18 19 -20 0
21 11 0
21 -20 0
-11 20 -21 0
22 -16 0
22 21 0
16 -21 -22 0
-23 -10 0
-23 22 0
10 -22 23 0
-25 9 0
-25 -24 0
-9 24 25 0
26 -23 0
26 -25 0
23 25 -26 0
27 11 -28 0
-27 -11 -28 0
27 -11 28 0
-27 11 28 0
28 -29 -30 0
-28 29 -30 0
28 29 30 0
-28 -29 30 0
-31 30 0
-31 -11 0
-30 11 31 0
32 -15 0
32 -1 0
15 1 -32 0
-31 -32 -33 0
31 32 -33 0
-31 32 33 0
31 -32 33 0
34 26 0
34 33 0
-26 -33 -34 0
36 15 0
36 35 0
-15 -35 -36 0
-37 36 0
-37 -11 0
-36 11 37 0
-34 -37 -38 0
34 37 -38 0
-34 37 38 0
34 -37 38 0
39 6 0
39 -38 0
-6 38 -39 0
40 -28 0
40 19 0
28 -19 -40 0
3 -2 -41 0
-3 2 -41 0
3 2 41 0
-3 -2 41 0
2 -41 -42 0
-2 41 -42 0
2 41 42 0
-2 -41 42 0
-42 22 -43 0
42 -22 -43 0
-42 -22 43 0
42 22 43 0
-40 43 -44 0
40 -43 -44 0
-40 -43 44 0
40 43 44 0
45 -13 0
45 35 0
13 -35 -45 0
46 -45 0
46 18 0
45 -18 -46 0
-47 46 0
-47 12 0
-46 -12 47 0
48 36 0
48 -41 0
-36 41 -48 0
49 -48 0
49 -28 0
48 28 -49 0
-50 -49 0
-50 -36 0
49 36 50 0
51 -47 0
51 -50 0
47 50 -51 0
52 -21 0
52 -11 0
21 11 -52 0
-53 51 0
-53 52 0
-51 -52 53 0
54 44 0
54 53 0
-44 -53 -54 0
55 -17 0
55 2 0
17 -2 -55 0
-20 55 -56 0
20 -55 -56 0
-20 -55 56 0
20 55 56 0
57 -27 0
57 -5 0
27 5 -57 0
-58 -47 0
-58 57 0
47 -57 58 0
56 -58 -59 0
-56 58 -59 0
56 58 59 0
-56 -58 59 0
27 -12 -60 0
-27 12 -60 0
27 12 60 0
-27 -12 60 0
-61 59 0
-61 -60 0
-59 60 61 0
-63 -27 0
-63 62 0
27 -62 63 0
-64 -15 0
-64 29 0
15 -29 64 0
4 -64 -65 0
-4 64 -65 0
4 64 65 0
-4 -64 65 0
66 -10 0
66 -65 0
10 65 -66 0
67 66 0
67 35 0
-66 -35 -67 0
-68 -67 0
-68 45 0
67 -45 68 0
-69 66 0
-69 64 0
-66 -64 69 0
70 -35 0
70 3 0
35 -3 -70 0
-69 70 -71 0
69 -70 -71 0
-69 -70 71 0
69 70 71 0
-72 -68 0
-72 71 0
68 -71 72 0
73 -32 0
73 -9 0
32 9 -73 0
-74 73 0
-74 48 0
-73 -48 74 0
-15 74 -75 0
15 -74 -75 0
-15 -74 75 0
15 74 75 0
75 4 -76 0
-75 -4 -76 0
75 -4 76 0
-75 4 76 0
-77 -65 0
-77 46 0
65 -46 77 0
78 40 0
78 77 0
-40 -77 -78 0
-79 76 0
-79 -78 0
-76 78 79 0
-80 72 0
-80 -79 0
-72 79 80 0
63 80 -81 0
-63 -80 -81 0
63 -80 81 0
-63 80 81 0
61 -81 -82 0
-61 81 -82 0
61 81 82 0
-61 -81 82 0
-83 25 0
-83 20 0
-25 -20 83 0
-85 -11 0
-85 84 0
11 -84 85 0
-74 -85 -86 0
74 85 -86 0
-74 85 86 0
74 -85 86 0
87 -83 0
87 -86 0
83 86 -87 0
88 -67 0
88 -20 0
67 20 -88 0
89 -64 0
89 -11 0
64 11 -89 0
89 64 -90 0
-89 -64 -90 0
89 -64 90 0
-89 64 90 0
-91 90 0
-91 -23 0
-90 23 91 0
92 -88 0
92 91 0
88 -91 -92 0
93 -28 0
93 28 0
94 -93 0
94 -10 0
93 10 -94 0
-95 -94 0
-95 19 0
94 -19 95 0
84 17 -96 0
-84 -17 -96 0
84 -17 96 0
-84 17 96 0
29 -96 -97 0
-29 96 -97 0
29 96 97 0
-29 -96 97 0
9 97 -98 0
-9 -97 -98 0
9 -97 98 0
-9 97 98 0
8 -98 -99 0
-8 98 -99 0
8 98 99 0
-8 -98 99 0
100 -55 0
100 -23 0
55 23 -100 0
99 -100 -101 0
-99 100 -101 0
99 100 101 0
-99 -100 101 0
-102 95 0
-102 -101 0
-95 101 102 0
-92 102 -103 0
92 -102 -103 0
-92 -102 103 0
92 102 103 0
104 -45 0
104 7 0
45 -7 -104 0
105 41 0
105 104 0
-41 -104 -105 0
-106 105 0
-106 29 0
-105 -29 106 0
-107 29 0
-107 -65 0
-29 65 107 0
108 49 0
108 1 0
-49 -1 -108 0
109 -48 0
109 -108 0
48 108 -109 0
110 40 0
110 109 0
-40 -109 -110 0
-111 21 0
-111 9 0
-21 -9 111 0
-112 -110 0
-112 -111 0
110 111 112 0
113 107 0
113 -112 0
-107 112 -113 0
114 106 0
114 -113 0
-106 113 -114 0
-115 103 0
-115 -114 0
-103 114 115 0
116 13 0
116 93 0
-13 -93 -116 0
117 40 0
117 -5 0
-40 5 -117 0
-118 85 0
-118 -117 0
-85 117 118 0
-15 -21 -119 0
15 21 -119 0
-15 21 119 0
15 -21 119 0
120 18 0
120 119 0
-18 -119 -120 0
121 118 0
121 -120 0
-118 120 -121 0
122 -116 0
122 121 0
116 -121 -122 0
123 115 0
123 -122 0
-115 122 -123 0
36 -35 -124 0
-36 35 -124 0
36 35 124 0
-36 -35 124 0
125 -17 0
125 124 0
17 -124 -125 0
126 125 0
126 73 0
-125 -73 -126 0
127 123 0
127 126 0
-123 -126 -127 0
128 87 0
128 127 0
-87 -127 -128 0
-129 82 0
-129 128 0
-82 -128 129 0
-130 54 0
-130 129 0
-54 -129 130 0
131 -39 0
131 -130 0
39 130 -131 0
50 -131 -59 -42 0
-89 32 129 83 0
24 -90 101 7 59 49 0
29 -51 87 -70 -44 0
-32 57 -51 -42 -74 69 0
119 94 -101 57 70 0
19 90 118 -81 0
38 -121 110 8 -58 0
14 82 0
120 -87 -16 26 0
-80 126 -41 3 0
-76 -104 -77 0
51 -18 0
-21 60 -20 82 86 94 0
47 -125 104 -50 -55 98 0
-46 -122 -26 -90 30 0
-97 5 77 34 0
-114 -75 -52 97 3 60 0
78 1 51 87 0
-120 -89 37 -57 -53 -71 0
-47 69 -10 0
-86 65 -131 62 -11 0
-73 -48 -128 31 -58 0
2 76 -103 0
-92 -95 88 89 0
63 -13 116 -99 -30 126 0
-130 91 86 -128 29 -23 0
-39 -71 9 -30 -85 0
-63 -123 -20 0
-4 29 -98 86 -38 0
-111 75 -101 90 39 0
98 42 -112 0
130 48 -94 12 0
64 -100 -96 0
-64 -46 0
13 47 -69 35 0
-51 112 -3 -90 -2 -83 0
4 -48 -123 0
-2 116 -9 -69 -105 10 0
-110 38 -114 13 -127 0
111 25 0
-17 -16 0
16 106 0
-117 91 106 -46 0
97 -25 131 -39 -99 0
21 -107 16 0
19 -114 -119 -59 47 20 0
-5 50 -97 103 0
-68 131 -107 4 -75 94 0
110 -5 93 -71 122 -33 0
-5 114 -74 79 110 0
-67 29 0
-23 -73 60 49 75 0
121 25 -27 7 0
101 124 -98 0
49 10 0
131 0
